npieces = 10;	
nplayers = 10;	
duration = [6, 8, 1, 10, 1, 4, 1, 5, 5, 5];
rehearsal = [[1, 1, 0, 1, 1, 1, 1, 1, 1, 0], [0, 1, 1, 1, 1, 1, 1, 0, 0, 1], [0, 0, 0, 0, 0, 1, 0, 1, 1, 1], [1, 1, 1, 1, 1, 1, 1, 0, 1, 1], [0, 1, 1, 0, 1, 1, 1, 0, 1, 1], [1, 0, 0, 1, 1, 0, 1, 1, 0, 1], [1, 1, 0, 1, 0, 1, 1, 1, 1, 1], [1, 1, 0, 0, 1, 1, 1, 0, 1, 1], [1, 1, 0, 1, 1, 0, 0, 0, 1, 0], [0, 0, 1, 0, 1, 1, 0, 0, 1, 1]];